12      4       
14      16      8       14      
0       0       0       0       0       3       2       3       4       
7       1       0       0       0       3       5       7       11      
4       9       0       5       6       1       8       
3       9       0       3       0       2       6       7       
1       1       9       7       0       1       9       
2       0       0       1       8       2       9       11      
5       0       9       0       0       2       9       10      
5       0       5       0       10      1       11      
7       0       0       0       5       1       12      
8       1       0       0       8       1       12      
8       9       8       2       0       1       12      
0       0       0       0       0       0       